100
1000
250
0 0
-10 -38
-10 -38
-10 -38
-10 -38
-10 -38
-10 -38
-10 -38
-10 -38
-10 -38
-10 -38
-10 -38
-10 -38
-10 -38
-10 -38
-10 -38
-10 -38
-10 -38
-10 -38
-10 -38
-10 -38
-10 -38
-10 -38
-10 -38
-10 -38
-10 -38
40 35
40 35
40 35
40 35
40 35
40 35
40 35
40 35
40 35
40 35
40 35
40 35
40 35
40 35
40 35
40 35
40 35
40 35
40 35
40 35
40 35
40 35
40 35
40 35
40 35
-40 -13
-40 -13
-40 -13
-40 -13
-40 -13
-40 -13
-40 -13
-40 -13
-40 -13
-40 -13
-40 -13
-40 -13
-40 -13
-40 -13
-40 -13
-40 -13
-40 -13
-40 -13
-40 -13
-40 -13
-40 -13
-40 -13
-40 -13
-40 -13
-40 -13
-29 20
-29 20
-29 20
-29 20
-29 20
-29 20
-29 20
-29 20
-29 20
-29 20
-29 20
-29 20
-29 20
-29 20
-29 20
-29 20
-29 20
-29 20
-29 20
-29 20
-29 20
-29 20
-29 20
-29 20
-29 20
-13 -10
-13 -10
-13 -10
-13 -10
-13 -10
-13 -10
-13 -10
-13 -10
-13 -10
-13 -10
-13 -10
-13 -10
-13 -10
-13 -10
-13 -10
-13 -10
-13 -10
-13 -10
-13 -10
-13 -10
-13 -10
-13 -10
-13 -10
-13 -10
-13 -10
18 -29
-30 36
-13 -7
30 -2
-36 18
-21 30
40 -9
8 10
11 -38
-17 -6
-5 40
-21 35
14 -10
14 13
-5 37
-13 18
27 -35
-33 8
-3 36
1 -35
-27 -38
-22 -6
-2 16
12 -16
40 -13
18 -29
-30 36
-13 -7
30 -2
-36 18
-21 30
40 -9
8 10
11 -38
-17 -6
-5 40
-21 35
14 -10
14 13
-5 37
-13 18
27 -35
-33 8
-3 36
1 -35
-27 -38
-22 -6
-2 16
12 -16
40 -13
18 -29
-30 36
-13 -7
30 -2
-36 18
-21 30
40 -9
8 10
11 -38
-17 -6
-5 40
-21 35
14 -10
14 13
-5 37
-13 18
27 -35
-33 8
-3 36
1 -35
-27 -38
-22 -6
-2 16
12 -16
40 -13
18 -29
-30 36
-13 -7
30 -2
-36 18
-21 30
40 -9
8 10
11 -38
-17 -6
-5 40
-21 35
14 -10
14 13
-5 37
-13 18
27 -35
-33 8
-3 36
1 -35
-27 -38
-22 -6
-2 16
12 -16
40 -13
18 -29
-30 36
-13 -7
30 -2
-36 18
-21 30
40 -9
8 10
11 -38
-17 -6
-5 40
-21 35
14 -10
14 13
-5 37
-13 18
27 -35
-33 8
-3 36
1 -35
-27 -38
-22 -6
-2 16
12 -16
40 -13
0 0 
52
60
55
55
57
60
53
54
54
52
56
55
52
56
54
57
59
53
55
52
51
54
55
59
54
56
57
55
57
60
53
57
59
59
52
59
51
60
53
59
54
53
56
56
55
55
56
60
55
56
57
59
60
52
52
51
55
59
53
56
56
56
59
57
51
55
54
56
56
56
59
59
60
55
54
59
57
60
52
51
54
52
56
55
59
57
56
56
60
57
59
56
55
53
54
56
57
59
52
56
56
56
59
59
57
56
60
54
51
55
56
52
55
54
51
59
59
56
54
55
54
51
54
53
54
52
60
55
55
57
60
53
54
54
52
56
55
52
56
54
57
59
53
55
52
51
54
55
59
54
56
57
55
57
60
53
57
59
59
52
59
51
60
53
59
54
53
56
56
55
55
56
60
55
56
57
59
60
52
52
51
55
59
53
56
56
56
59
57
51
55
54
56
56
56
59
59
60
55
54
59
57
60
52
51
54
52
56
55
59
57
56
56
60
57
59
56
55
53
54
56
57
59
52
56
56
56
59
59
57
56
60
54
51
55
56
52
55
54
51
59
59
56
54
55
54
51
54
53
54
